(set-info :Origin "This instance was generated by: BanditFuzz-- an RL fuzzer for SMT solvers" )
(set-info :Author "Joe Scott, Fed Mora, Vijay Ganesh" )
(set-info :Contact "Joe Scott, joseph.scott@uwaterloo.ca")
(set-logic QF_BV)
(declare-const bool_0 Bool)
(declare-const bool_1 Bool)
(declare-const bool_2 Bool)
(declare-const bool_3 Bool)
(declare-const bool_4 Bool)
(declare-const bv_0 (_ BitVec 32))
(declare-const bv_1 (_ BitVec 32))
(declare-const bv_2 (_ BitVec 32))
(declare-const bv_3 (_ BitVec 32))
(declare-const bv_4 (_ BitVec 32))
(assert (bvsle (bvor (bvor #xd00fe30c  bv_0) (bvand bv_0 #x44dd5672 )) (bvadd (bvadd #xbb32ba4b  #x65e55d7a ) (bvsmod #x5a4ab014  bv_1))))
(assert (bvsgt (bvlshr (bvmul bv_4 bv_3) (bvsmod bv_4 #x75d322f3 )) (bvxor (bvxnor bv_0 #xf0cec3fa ) (bvor #x6a5fa501  bv_4))))
(assert (bvsgt (bvsdiv (bvlshr bv_3 bv_3) (bvnor #x240e7bd6  bv_4)) (bvnor (bvnor bv_4 bv_1) (bvmul #xb853913b  bv_1))))
(assert (bvsge (bvnand (bvand bv_4 bv_3) (bvxor bv_3 #xdc42c81d )) (bvsub (bvudiv #xc48768e4  #x0d3e21a3 ) (bvmul bv_1 bv_2))))
(assert (bvugt (bvor (bvshl bv_2 bv_4) (bvnand bv_0 #x9afb301b )) (bvsmod (bvlshr bv_0 bv_1) (bvxor #xcbd4a287  #x2e69686c ))))
(check-sat)
(exit)
